NAME : P = NP
TYPE : TSP
DIMENSION : 32
EDGE_WEIGHT_TYPE : EUC_2D
NODE_COORD_SECTION
0 211 359
1 173 362
2 503 213
3 35 69
4 82 161
5 6 79
6 158 655
7 619 187
8 255 252
9 436 12
10 296 202
11 132 16
12 641 240
13 57 581
14 143 123
15 607 257
16 489 134
17 370 162
18 94 663
19 755 162
20 249 116
21 391 29
22 131 18
23 365 54
24 68 114
25 44 40
26 263 516
27 10 576
28 91 121
29 388 167
30 5 271
31 53 175